\ENCODING=ISO-8859-1
\Problem name: IloCplex

Minimize
 obj: z125 + z126 + z127 + z128 + z129 + z130 + z131 + z132 + z133 + z134
      + z135 + z136 + z137 + z138 + z139 + z140 + z141 + z142 + z143 + z144
      + z145 + z146 + z147 + z148 + z149 + z150 + z151 + z152 + z153 + z154
      + z155 + z156 + z157 + z158 + z159 + z160 + z161 + z162 + z163 + z164
      + z165 + z166 + z167 + z168 + z169 + z170 + z171 + z172 + z173 + z174
      + z175 + z176 + z177 + z178 + z179 + z180 + z181 + z182 + z183 + z184
      + z185 + z186 + z187 + z188 + z189 + z190 + z191 + z192 + z193 + z194
      + z195 + z196 + z197 + z198 + z199 + z200 + z201 + z202 + z203 + z204
      + z205 + z206 + z207 + z208 + z209 + z210 + z211 + z212 + z213 + z214
      + z215 + z216 + z217 + z218 + z219 + z220 + z221 + z222 + z223 + z224
      + z225 + z226 + z227 + z228 + z229 + z230 + z231 + z232 + z233 + z234
      + z235 + z236 + z237 + z238 + z239 + z240 + z241 + z242 + z243 + z244
      + z245 + z246 + z247 + z248 + z249 + z250 + z251 + z252 + z253 + z254
      + z255 + z256 + z257 + z258 + z259 + z260 + z261 + z262 + z263 + z264
      + z265 + z266 + z267 + z268 + z269 + z270 + z271 + z272 + z273 + z274
      + z275 + z276 + z277 + z278 + z279 + z280 + z281 + z282 + z283 + z284
      + z285 + z286 + z287 + z288 + z289 + z290 + z291 + z292 + z293 + z294
      + z295 + z296 + z297 + z298 + z299 + z300 + z301 + z302 + z303 + z304
      + z305 + z306 + z307 + z308 + z309 + z310 + z311 + z312 + z313 + z314
      + z315 + z316 + z317 + z318 + z319 + z320 + z321 + z322 + z323 + z324
      + z325 + z326 + z327 + z328 + z329 + z330 + z331 + z332 + z333 + z334
      + z335 + z336 + z337 + z338 + z339 + z340 + z341 + z342 + z343 + z344
      + z345 + z346 + z347 + z348 + z349 + z350 + z351 + z352 + z353 + z354
      + z355 + z356 + z357 + z358 + z359 + z360 + z361 + z362 + z363 + z364
      + z365 + z366 + z367 + z368 + z369 + z370 + z371 + z372 + z373 + z374
      + z375 + z376 + z377 + z378 + z379 + z380 + z381 + z382 + z383 + z384
      + z385 + z386 + z387 + z388 + z389 + z390 + z391 + z392 + z393 + z394
      + z395 + z396 + z397 + z398 + z399 + z400 + z401 + z402 + z403 + z404
      + z405 + z406 + z407 + z408 + z409 + z410 + z411 + z412 + z413 + z414
      + z415 + z416 + z417 + z418 + z419 + z420 + z421 + z422 + z423 + z424
      + z425 + z426 + z427 + z428 + z429 + z430 + z431 + z432 + z433 + z434
      + z435 + z436 + z437 + z438 + z439 + z440 + z441 + z442 + z443 + z444
      + z445 + z446 + z447 + z448 + z449 + z450 + z451 + z452 + z453 + z454
      + z455 + z456 + z457 + z458 + z459 + z460 + z461 + z462 + z463 + z464
      + z465 + z466 + z467 + z468 + z469 + z470 + z471 + z472 + z473 + z474
      + z475 + z476 + z477 + z478 + z479 + z480 + z481 + z482 + z483 + z484
      + z485 + z486 + z487 + z488 + z489 + z490 + z491 + z492 + z493 + z494
      + z495 + z496 + z497 + z498 + z499 + z500 + z501 + z502 + z503 + z504
      + z505 + z506 + z507 + z508 + z509 + z510 + z511 + z512 + z513 + z514
      + z515 + z516 + z517 + z518 + z519 + z520 + z521 + z522 + z523 + z524
      + z525 + z526 + z527 + z528 + z529 + z530 + z531 + z532 + z533 + z534
      + z535 + z536 + z537 + z538 + z539 + z540 + z541 + z542 + z543 + z544
      + z545 + z546 + z547 + z548 + z549 + z550 + z551 + z552 + z553 + z554
      + z555 + z556 + z557 + z558 + z559 + z560 + z561 + z562 + z563 + z564
      + z565 + z566 + z567 + z568 + z569 + z570 + z571 + z572 + z573 + z574
      + z575 + z576 + z577 + z578 + z579 + z580 + z581 + z582 + z583 + z584
      + z585 + z586 + z587 + z588 + z589 + z590 + z591 + z592 + z593 + z594
      + z595 + z596 + z597 + z598 + z599 + z600 + z601 + z602 + z603 + z604
      + z605 + z606 + z607 + z608 + z609 + z610 + z611 + z612 + z613 + z614
      + z615 + z616 + z617 + z618 + z619 + z620 + z621 + z622 + z623 + z624
Subject To
 c1: z125 + z126 + z127 + z128 + z129 + z130 + z131 + z132 + z133 + z134 + z135
     + z136 + z137 + z138 + z139 + z140 + z141 + z142 + z143 + z144 + z145
     + z146 + z147 + z148 + z149 + z150 + z151 + z152 + z153 + z154 + z155
     + z156 + z157 + z158 + z159 + z160 + z161 + z162 + z163 + z164 + z165
     + z166 + z167 + z168 + z169 + z170 + z171 + z172 + z173 + z174 + z175
     + z176 + z177 + z178 + z179 + z180 + z181 + z182 + z183 + z184 + z185
     + z186 + z187 + z188 + z189 + z190 + z191 + z192 + z193 + z194 + z195
     + z196 + z197 + z198 + z199 + z200 + z201 + z202 + z203 + z204 + z205
     + z206 + z207 + z208 + z209 + z210 + z211 + z212 + z213 + z214 + z215
     + z216 + z217 + z218 + z219 + z220 + z221 + z222 + z223 + z224 + z225
     + z226 + z227 + z228 + z229 + z230 + z231 + z232 + z233 + z234 + z235
     + z236 + z237 + z238 + z239 + z240 + z241 + z242 + z243 + z244 + z245
     + z246 + z247 + z248 + z249 + z250 + z251 + z252 + z253 + z254 + z255
     + z256 + z257 + z258 + z259 + z260 + z261 + z262 + z263 + z264 + z265
     + z266 + z267 + z268 + z269 + z270 + z271 + z272 + z273 + z274 + z275
     + z276 + z277 + z278 + z279 + z280 + z281 + z282 + z283 + z284 + z285
     + z286 + z287 + z288 + z289 + z290 + z291 + z292 + z293 + z294 + z295
     + z296 + z297 + z298 + z299 + z300 + z301 + z302 + z303 + z304 + z305
     + z306 + z307 + z308 + z309 + z310 + z311 + z312 + z313 + z314 + z315
     + z316 + z317 + z318 + z319 + z320 + z321 + z322 + z323 + z324 + z325
     + z326 + z327 + z328 + z329 + z330 + z331 + z332 + z333 + z334 + z335
     + z336 + z337 + z338 + z339 + z340 + z341 + z342 + z343 + z344 + z345
     + z346 + z347 + z348 + z349 + z350 + z351 + z352 + z353 + z354 + z355
     + z356 + z357 + z358 + z359 + z360 + z361 + z362 + z363 + z364 + z365
     + z366 + z367 + z368 + z369 + z370 + z371 + z372 + z373 + z374 + z375
     + z376 + z377 + z378 + z379 + z380 + z381 + z382 + z383 + z384 + z385
     + z386 + z387 + z388 + z389 + z390 + z391 + z392 + z393 + z394 + z395
     + z396 + z397 + z398 + z399 + z400 + z401 + z402 + z403 + z404 + z405
     + z406 + z407 + z408 + z409 + z410 + z411 + z412 + z413 + z414 + z415
     + z416 + z417 + z418 + z419 + z420 + z421 + z422 + z423 + z424 + z425
     + z426 + z427 + z428 + z429 + z430 + z431 + z432 + z433 + z434 + z435
     + z436 + z437 + z438 + z439 + z440 + z441 + z442 + z443 + z444 + z445
     + z446 + z447 + z448 + z449 + z450 + z451 + z452 + z453 + z454 + z455
     + z456 + z457 + z458 + z459 + z460 + z461 + z462 + z463 + z464 + z465
     + z466 + z467 + z468 + z469 + z470 + z471 + z472 + z473 + z474 + z475
     + z476 + z477 + z478 + z479 + z480 + z481 + z482 + z483 + z484 + z485
     + z486 + z487 + z488 + z489 + z490 + z491 + z492 + z493 + z494 + z495
     + z496 + z497 + z498 + z499 + z500 + z501 + z502 + z503 + z504 + z505
     + z506 + z507 + z508 + z509 + z510 + z511 + z512 + z513 + z514 + z515
     + z516 + z517 + z518 + z519 + z520 + z521 + z522 + z523 + z524 + z525
     + z526 + z527 + z528 + z529 + z530 + z531 + z532 + z533 + z534 + z535
     + z536 + z537 + z538 + z539 + z540 + z541 + z542 + z543 + z544 + z545
     + z546 + z547 + z548 + z549 + z550 + z551 + z552 + z553 + z554 + z555
     + z556 + z557 + z558 + z559 + z560 + z561 + z562 + z563 + z564 + z565
     + z566 + z567 + z568 + z569 + z570 + z571 + z572 + z573 + z574 + z575
     + z576 + z577 + z578 + z579 + z580 + z581 + z582 + z583 + z584 + z585
     + z586 + z587 + z588 + z589 + z590 + z591 + z592 + z593 + z594 + z595
     + z596 + z597 + z598 + z599 + z600 + z601 + z602 + z603 + z604 + z605
     + z606 + z607 + z608 + z609 + z610 + z611 + z612 + z613 + z614 + z615
     + z616 + z617 + z618 + z619 + z620 + z621 + z622 + z623 + z624 + 212 z19
     + 192 z41 + 205 z80 + 192 z27 + 178 z25 + 197 z60 + 179 z95 + 219 z6
     + 177 z81 + 200 z123 + 205 z106 + 175 z82 + 220 z85 + 180 z101 + 193 z44
     + 202 z12 + 200 z53 + 193 z26 + 206 z24 + 201 z121 + 199 z51 + 194 z97
     + 196 z7 + 195 z4 + 189 z33 + 202 z83 + 196 z55 + 209 z49 + 218 z74
     + 183 z57 + 195 z11 + 209 z113 + 207 z0 + 202 z40 + 192 z122 + 197 z114
     + 194 z38 + 186 z98 + 216 z77 + 201 z35 + 217 z48 + 219 z37 + 206 z59
     + 215 z111 + 180 z103 + 197 z88 + 197 z119 + 206 z36 + 181 z78 + 175 z86
     + 172 z10 + 202 z14 + 197 z2 + 192 z93 + 196 z99 + 177 z72 + 194 z91
     + 199 z124 + 197 z45 + 224 z108 + 194 z94 + 204 z112 + 190 z116 + 205 z84
     + 192 z69 + 209 z30 + 185 z104 + 203 z34 + 207 z39 + 186 z20 + 186 z100
     + 192 z56 + 227 z120 + 205 z71 + 235 z18 + 208 z22 + 213 z109 + 224 z102
     + 204 z64 + 204 z31 + 218 z68 + 201 z58 + 187 z43 + 208 z50 + 219 z28
     + 199 z75 + 195 z9 + 219 z63 + 187 z54 + 195 z117 + 189 z21 + 237 z3
     + 194 z52 + 190 z47 + 201 z16 + 200 z1 + 192 z23 + 186 z61 + 223 z110
     + 217 z92 + 217 z76 + 178 z66 + 204 z115 + 202 z17 + 210 z13 + 214 z8
     + 183 z67 + 210 z46 + 191 z118 + 179 z107 + 202 z96 + 230 z15 + 198 z79
     + 205 z73 + 208 z89 + 185 z65 + 227 z105 + 189 z87 + 205 z5 + 187 z70
     + 193 z90 + 186 z62 + 175 z42 + 191 z29 + 202 z32 >= 500
 c2: z125  = 1
 c3: z19 + z41 + z80 + z27 + z25 + z60 + z95 + z6 + z81 + z123 + z106 + z82
     + z85 + z101 + z44 + z12 + z53 + z26 + z24 + z121 + z51 + z97 + z7 + z4
     + z33 + z83 + z55 + z49 + z74 + z57 + z11 + z113 + z0 + z40 + z122 + z114
     + z38 + z98 + z77 + z35 + z48 + z37 + z59 + z111 + z103 + z88 + z119 + z36
     + z78 + z86 + z10 + z14 + z2 + z93 + z99 + z72 + z91 + z124 + z45 + z108
     + z94 + z112 + z116 + z84 + z69 + z30 + z104 + z34 + z39 + z20 + z100
     + z56 + z120 + z71 + z18 + z22 + z109 + z102 + z64 + z31 + z68 + z58 + z43
     + z50 + z28 + z75 + z9 + z63 + z54 + z117 + z21 + z3 + z52 + z47 + z16
     + z1 + z23 + z61 + z110 + z92 + z76 + z66 + z115 + z17 + z13 + z8 + z67
     + z46 + z118 + z107 + z96 + z15 + z79 + z73 + z89 + z65 + z105 + z87 + z5
     + z70 + z90 + z62 + z42 + z29 + z32  = 3
Bounds
 0 <= z125 <= 1
 0 <= z126 <= 1
 0 <= z127 <= 1
 0 <= z128 <= 1
 0 <= z129 <= 1
 0 <= z130 <= 1
 0 <= z131 <= 1
 0 <= z132 <= 1
 0 <= z133 <= 1
 0 <= z134 <= 1
 0 <= z135 <= 1
 0 <= z136 <= 1
 0 <= z137 <= 1
 0 <= z138 <= 1
 0 <= z139 <= 1
 0 <= z140 <= 1
 0 <= z141 <= 1
 0 <= z142 <= 1
 0 <= z143 <= 1
 0 <= z144 <= 1
 0 <= z145 <= 1
 0 <= z146 <= 1
 0 <= z147 <= 1
 0 <= z148 <= 1
 0 <= z149 <= 1
 0 <= z150 <= 1
 0 <= z151 <= 1
 0 <= z152 <= 1
 0 <= z153 <= 1
 0 <= z154 <= 1
 0 <= z155 <= 1
 0 <= z156 <= 1
 0 <= z157 <= 1
 0 <= z158 <= 1
 0 <= z159 <= 1
 0 <= z160 <= 1
 0 <= z161 <= 1
 0 <= z162 <= 1
 0 <= z163 <= 1
 0 <= z164 <= 1
 0 <= z165 <= 1
 0 <= z166 <= 1
 0 <= z167 <= 1
 0 <= z168 <= 1
 0 <= z169 <= 1
 0 <= z170 <= 1
 0 <= z171 <= 1
 0 <= z172 <= 1
 0 <= z173 <= 1
 0 <= z174 <= 1
 0 <= z175 <= 1
 0 <= z176 <= 1
 0 <= z177 <= 1
 0 <= z178 <= 1
 0 <= z179 <= 1
 0 <= z180 <= 1
 0 <= z181 <= 1
 0 <= z182 <= 1
 0 <= z183 <= 1
 0 <= z184 <= 1
 0 <= z185 <= 1
 0 <= z186 <= 1
 0 <= z187 <= 1
 0 <= z188 <= 1
 0 <= z189 <= 1
 0 <= z190 <= 1
 0 <= z191 <= 1
 0 <= z192 <= 1
 0 <= z193 <= 1
 0 <= z194 <= 1
 0 <= z195 <= 1
 0 <= z196 <= 1
 0 <= z197 <= 1
 0 <= z198 <= 1
 0 <= z199 <= 1
 0 <= z200 <= 1
 0 <= z201 <= 1
 0 <= z202 <= 1
 0 <= z203 <= 1
 0 <= z204 <= 1
 0 <= z205 <= 1
 0 <= z206 <= 1
 0 <= z207 <= 1
 0 <= z208 <= 1
 0 <= z209 <= 1
 0 <= z210 <= 1
 0 <= z211 <= 1
 0 <= z212 <= 1
 0 <= z213 <= 1
 0 <= z214 <= 1
 0 <= z215 <= 1
 0 <= z216 <= 1
 0 <= z217 <= 1
 0 <= z218 <= 1
 0 <= z219 <= 1
 0 <= z220 <= 1
 0 <= z221 <= 1
 0 <= z222 <= 1
 0 <= z223 <= 1
 0 <= z224 <= 1
 0 <= z225 <= 1
 0 <= z226 <= 1
 0 <= z227 <= 1
 0 <= z228 <= 1
 0 <= z229 <= 1
 0 <= z230 <= 1
 0 <= z231 <= 1
 0 <= z232 <= 1
 0 <= z233 <= 1
 0 <= z234 <= 1
 0 <= z235 <= 1
 0 <= z236 <= 1
 0 <= z237 <= 1
 0 <= z238 <= 1
 0 <= z239 <= 1
 0 <= z240 <= 1
 0 <= z241 <= 1
 0 <= z242 <= 1
 0 <= z243 <= 1
 0 <= z244 <= 1
 0 <= z245 <= 1
 0 <= z246 <= 1
 0 <= z247 <= 1
 0 <= z248 <= 1
 0 <= z249 <= 1
 0 <= z250 <= 1
 0 <= z251 <= 1
 0 <= z252 <= 1
 0 <= z253 <= 1
 0 <= z254 <= 1
 0 <= z255 <= 1
 0 <= z256 <= 1
 0 <= z257 <= 1
 0 <= z258 <= 1
 0 <= z259 <= 1
 0 <= z260 <= 1
 0 <= z261 <= 1
 0 <= z262 <= 1
 0 <= z263 <= 1
 0 <= z264 <= 1
 0 <= z265 <= 1
 0 <= z266 <= 1
 0 <= z267 <= 1
 0 <= z268 <= 1
 0 <= z269 <= 1
 0 <= z270 <= 1
 0 <= z271 <= 1
 0 <= z272 <= 1
 0 <= z273 <= 1
 0 <= z274 <= 1
 0 <= z275 <= 1
 0 <= z276 <= 1
 0 <= z277 <= 1
 0 <= z278 <= 1
 0 <= z279 <= 1
 0 <= z280 <= 1
 0 <= z281 <= 1
 0 <= z282 <= 1
 0 <= z283 <= 1
 0 <= z284 <= 1
 0 <= z285 <= 1
 0 <= z286 <= 1
 0 <= z287 <= 1
 0 <= z288 <= 1
 0 <= z289 <= 1
 0 <= z290 <= 1
 0 <= z291 <= 1
 0 <= z292 <= 1
 0 <= z293 <= 1
 0 <= z294 <= 1
 0 <= z295 <= 1
 0 <= z296 <= 1
 0 <= z297 <= 1
 0 <= z298 <= 1
 0 <= z299 <= 1
 0 <= z300 <= 1
 0 <= z301 <= 1
 0 <= z302 <= 1
 0 <= z303 <= 1
 0 <= z304 <= 1
 0 <= z305 <= 1
 0 <= z306 <= 1
 0 <= z307 <= 1
 0 <= z308 <= 1
 0 <= z309 <= 1
 0 <= z310 <= 1
 0 <= z311 <= 1
 0 <= z312 <= 1
 0 <= z313 <= 1
 0 <= z314 <= 1
 0 <= z315 <= 1
 0 <= z316 <= 1
 0 <= z317 <= 1
 0 <= z318 <= 1
 0 <= z319 <= 1
 0 <= z320 <= 1
 0 <= z321 <= 1
 0 <= z322 <= 1
 0 <= z323 <= 1
 0 <= z324 <= 1
 0 <= z325 <= 1
 0 <= z326 <= 1
 0 <= z327 <= 1
 0 <= z328 <= 1
 0 <= z329 <= 1
 0 <= z330 <= 1
 0 <= z331 <= 1
 0 <= z332 <= 1
 0 <= z333 <= 1
 0 <= z334 <= 1
 0 <= z335 <= 1
 0 <= z336 <= 1
 0 <= z337 <= 1
 0 <= z338 <= 1
 0 <= z339 <= 1
 0 <= z340 <= 1
 0 <= z341 <= 1
 0 <= z342 <= 1
 0 <= z343 <= 1
 0 <= z344 <= 1
 0 <= z345 <= 1
 0 <= z346 <= 1
 0 <= z347 <= 1
 0 <= z348 <= 1
 0 <= z349 <= 1
 0 <= z350 <= 1
 0 <= z351 <= 1
 0 <= z352 <= 1
 0 <= z353 <= 1
 0 <= z354 <= 1
 0 <= z355 <= 1
 0 <= z356 <= 1
 0 <= z357 <= 1
 0 <= z358 <= 1
 0 <= z359 <= 1
 0 <= z360 <= 1
 0 <= z361 <= 1
 0 <= z362 <= 1
 0 <= z363 <= 1
 0 <= z364 <= 1
 0 <= z365 <= 1
 0 <= z366 <= 1
 0 <= z367 <= 1
 0 <= z368 <= 1
 0 <= z369 <= 1
 0 <= z370 <= 1
 0 <= z371 <= 1
 0 <= z372 <= 1
 0 <= z373 <= 1
 0 <= z374 <= 1
 0 <= z375 <= 1
 0 <= z376 <= 1
 0 <= z377 <= 1
 0 <= z378 <= 1
 0 <= z379 <= 1
 0 <= z380 <= 1
 0 <= z381 <= 1
 0 <= z382 <= 1
 0 <= z383 <= 1
 0 <= z384 <= 1
 0 <= z385 <= 1
 0 <= z386 <= 1
 0 <= z387 <= 1
 0 <= z388 <= 1
 0 <= z389 <= 1
 0 <= z390 <= 1
 0 <= z391 <= 1
 0 <= z392 <= 1
 0 <= z393 <= 1
 0 <= z394 <= 1
 0 <= z395 <= 1
 0 <= z396 <= 1
 0 <= z397 <= 1
 0 <= z398 <= 1
 0 <= z399 <= 1
 0 <= z400 <= 1
 0 <= z401 <= 1
 0 <= z402 <= 1
 0 <= z403 <= 1
 0 <= z404 <= 1
 0 <= z405 <= 1
 0 <= z406 <= 1
 0 <= z407 <= 1
 0 <= z408 <= 1
 0 <= z409 <= 1
 0 <= z410 <= 1
 0 <= z411 <= 1
 0 <= z412 <= 1
 0 <= z413 <= 1
 0 <= z414 <= 1
 0 <= z415 <= 1
 0 <= z416 <= 1
 0 <= z417 <= 1
 0 <= z418 <= 1
 0 <= z419 <= 1
 0 <= z420 <= 1
 0 <= z421 <= 1
 0 <= z422 <= 1
 0 <= z423 <= 1
 0 <= z424 <= 1
 0 <= z425 <= 1
 0 <= z426 <= 1
 0 <= z427 <= 1
 0 <= z428 <= 1
 0 <= z429 <= 1
 0 <= z430 <= 1
 0 <= z431 <= 1
 0 <= z432 <= 1
 0 <= z433 <= 1
 0 <= z434 <= 1
 0 <= z435 <= 1
 0 <= z436 <= 1
 0 <= z437 <= 1
 0 <= z438 <= 1
 0 <= z439 <= 1
 0 <= z440 <= 1
 0 <= z441 <= 1
 0 <= z442 <= 1
 0 <= z443 <= 1
 0 <= z444 <= 1
 0 <= z445 <= 1
 0 <= z446 <= 1
 0 <= z447 <= 1
 0 <= z448 <= 1
 0 <= z449 <= 1
 0 <= z450 <= 1
 0 <= z451 <= 1
 0 <= z452 <= 1
 0 <= z453 <= 1
 0 <= z454 <= 1
 0 <= z455 <= 1
 0 <= z456 <= 1
 0 <= z457 <= 1
 0 <= z458 <= 1
 0 <= z459 <= 1
 0 <= z460 <= 1
 0 <= z461 <= 1
 0 <= z462 <= 1
 0 <= z463 <= 1
 0 <= z464 <= 1
 0 <= z465 <= 1
 0 <= z466 <= 1
 0 <= z467 <= 1
 0 <= z468 <= 1
 0 <= z469 <= 1
 0 <= z470 <= 1
 0 <= z471 <= 1
 0 <= z472 <= 1
 0 <= z473 <= 1
 0 <= z474 <= 1
 0 <= z475 <= 1
 0 <= z476 <= 1
 0 <= z477 <= 1
 0 <= z478 <= 1
 0 <= z479 <= 1
 0 <= z480 <= 1
 0 <= z481 <= 1
 0 <= z482 <= 1
 0 <= z483 <= 1
 0 <= z484 <= 1
 0 <= z485 <= 1
 0 <= z486 <= 1
 0 <= z487 <= 1
 0 <= z488 <= 1
 0 <= z489 <= 1
 0 <= z490 <= 1
 0 <= z491 <= 1
 0 <= z492 <= 1
 0 <= z493 <= 1
 0 <= z494 <= 1
 0 <= z495 <= 1
 0 <= z496 <= 1
 0 <= z497 <= 1
 0 <= z498 <= 1
 0 <= z499 <= 1
 0 <= z500 <= 1
 0 <= z501 <= 1
 0 <= z502 <= 1
 0 <= z503 <= 1
 0 <= z504 <= 1
 0 <= z505 <= 1
 0 <= z506 <= 1
 0 <= z507 <= 1
 0 <= z508 <= 1
 0 <= z509 <= 1
 0 <= z510 <= 1
 0 <= z511 <= 1
 0 <= z512 <= 1
 0 <= z513 <= 1
 0 <= z514 <= 1
 0 <= z515 <= 1
 0 <= z516 <= 1
 0 <= z517 <= 1
 0 <= z518 <= 1
 0 <= z519 <= 1
 0 <= z520 <= 1
 0 <= z521 <= 1
 0 <= z522 <= 1
 0 <= z523 <= 1
 0 <= z524 <= 1
 0 <= z525 <= 1
 0 <= z526 <= 1
 0 <= z527 <= 1
 0 <= z528 <= 1
 0 <= z529 <= 1
 0 <= z530 <= 1
 0 <= z531 <= 1
 0 <= z532 <= 1
 0 <= z533 <= 1
 0 <= z534 <= 1
 0 <= z535 <= 1
 0 <= z536 <= 1
 0 <= z537 <= 1
 0 <= z538 <= 1
 0 <= z539 <= 1
 0 <= z540 <= 1
 0 <= z541 <= 1
 0 <= z542 <= 1
 0 <= z543 <= 1
 0 <= z544 <= 1
 0 <= z545 <= 1
 0 <= z546 <= 1
 0 <= z547 <= 1
 0 <= z548 <= 1
 0 <= z549 <= 1
 0 <= z550 <= 1
 0 <= z551 <= 1
 0 <= z552 <= 1
 0 <= z553 <= 1
 0 <= z554 <= 1
 0 <= z555 <= 1
 0 <= z556 <= 1
 0 <= z557 <= 1
 0 <= z558 <= 1
 0 <= z559 <= 1
 0 <= z560 <= 1
 0 <= z561 <= 1
 0 <= z562 <= 1
 0 <= z563 <= 1
 0 <= z564 <= 1
 0 <= z565 <= 1
 0 <= z566 <= 1
 0 <= z567 <= 1
 0 <= z568 <= 1
 0 <= z569 <= 1
 0 <= z570 <= 1
 0 <= z571 <= 1
 0 <= z572 <= 1
 0 <= z573 <= 1
 0 <= z574 <= 1
 0 <= z575 <= 1
 0 <= z576 <= 1
 0 <= z577 <= 1
 0 <= z578 <= 1
 0 <= z579 <= 1
 0 <= z580 <= 1
 0 <= z581 <= 1
 0 <= z582 <= 1
 0 <= z583 <= 1
 0 <= z584 <= 1
 0 <= z585 <= 1
 0 <= z586 <= 1
 0 <= z587 <= 1
 0 <= z588 <= 1
 0 <= z589 <= 1
 0 <= z590 <= 1
 0 <= z591 <= 1
 0 <= z592 <= 1
 0 <= z593 <= 1
 0 <= z594 <= 1
 0 <= z595 <= 1
 0 <= z596 <= 1
 0 <= z597 <= 1
 0 <= z598 <= 1
 0 <= z599 <= 1
 0 <= z600 <= 1
 0 <= z601 <= 1
 0 <= z602 <= 1
 0 <= z603 <= 1
 0 <= z604 <= 1
 0 <= z605 <= 1
 0 <= z606 <= 1
 0 <= z607 <= 1
 0 <= z608 <= 1
 0 <= z609 <= 1
 0 <= z610 <= 1
 0 <= z611 <= 1
 0 <= z612 <= 1
 0 <= z613 <= 1
 0 <= z614 <= 1
 0 <= z615 <= 1
 0 <= z616 <= 1
 0 <= z617 <= 1
 0 <= z618 <= 1
 0 <= z619 <= 1
 0 <= z620 <= 1
 0 <= z621 <= 1
 0 <= z622 <= 1
 0 <= z623 <= 1
 0 <= z624 <= 1
 0 <= z19 <= 1
 0 <= z41 <= 1
 0 <= z80 <= 1
 0 <= z27 <= 1
 0 <= z25 <= 1
 0 <= z60 <= 1
 0 <= z95 <= 1
 0 <= z6 <= 1
 0 <= z81 <= 1
 0 <= z123 <= 1
 0 <= z106 <= 1
 0 <= z82 <= 1
 0 <= z85 <= 1
 0 <= z101 <= 1
 0 <= z44 <= 1
 0 <= z12 <= 1
 0 <= z53 <= 1
 0 <= z26 <= 1
 0 <= z24 <= 1
 0 <= z121 <= 1
 0 <= z51 <= 1
 0 <= z97 <= 1
 0 <= z7 <= 1
 0 <= z4 <= 1
 0 <= z33 <= 1
 0 <= z83 <= 1
 0 <= z55 <= 1
 0 <= z49 <= 1
 0 <= z74 <= 1
 0 <= z57 <= 1
 0 <= z11 <= 1
 0 <= z113 <= 1
 0 <= z0 <= 1
 0 <= z40 <= 1
 0 <= z122 <= 1
 0 <= z114 <= 1
 0 <= z38 <= 1
 0 <= z98 <= 1
 0 <= z77 <= 1
 0 <= z35 <= 1
 0 <= z48 <= 1
 0 <= z37 <= 1
 0 <= z59 <= 1
 0 <= z111 <= 1
 0 <= z103 <= 1
 0 <= z88 <= 1
 0 <= z119 <= 1
 0 <= z36 <= 1
 0 <= z78 <= 1
 0 <= z86 <= 1
 0 <= z10 <= 1
 0 <= z14 <= 1
 0 <= z2 <= 1
 0 <= z93 <= 1
 0 <= z99 <= 1
 0 <= z72 <= 1
 0 <= z91 <= 1
 0 <= z124 <= 1
 0 <= z45 <= 1
 0 <= z108 <= 1
 0 <= z94 <= 1
 0 <= z112 <= 1
 0 <= z116 <= 1
 0 <= z84 <= 1
 0 <= z69 <= 1
 0 <= z30 <= 1
 0 <= z104 <= 1
 0 <= z34 <= 1
 0 <= z39 <= 1
 0 <= z20 <= 1
 0 <= z100 <= 1
 0 <= z56 <= 1
 0 <= z120 <= 1
 0 <= z71 <= 1
 0 <= z18 <= 1
 0 <= z22 <= 1
 0 <= z109 <= 1
 0 <= z102 <= 1
 0 <= z64 <= 1
 0 <= z31 <= 1
 0 <= z68 <= 1
 0 <= z58 <= 1
 0 <= z43 <= 1
 0 <= z50 <= 1
 0 <= z28 <= 1
 0 <= z75 <= 1
 0 <= z9 <= 1
 0 <= z63 <= 1
 0 <= z54 <= 1
 0 <= z117 <= 1
 0 <= z21 <= 1
 0 <= z3 <= 1
 0 <= z52 <= 1
 0 <= z47 <= 1
 0 <= z16 <= 1
 0 <= z1 <= 1
 0 <= z23 <= 1
 0 <= z61 <= 1
 0 <= z110 <= 1
 0 <= z92 <= 1
 0 <= z76 <= 1
 0 <= z66 <= 1
 0 <= z115 <= 1
 0 <= z17 <= 1
 0 <= z13 <= 1
 0 <= z8 <= 1
 0 <= z67 <= 1
 0 <= z46 <= 1
 0 <= z118 <= 1
 0 <= z107 <= 1
 0 <= z96 <= 1
 0 <= z15 <= 1
 0 <= z79 <= 1
 0 <= z73 <= 1
 0 <= z89 <= 1
 0 <= z65 <= 1
 0 <= z105 <= 1
 0 <= z87 <= 1
 0 <= z5 <= 1
 0 <= z70 <= 1
 0 <= z90 <= 1
 0 <= z62 <= 1
 0 <= z42 <= 1
 0 <= z29 <= 1
 0 <= z32 <= 1
Binaries
 z125  z126  z127  z128  z129  z130  z131  z132  z133  z134  z135  z136  z137 
 z138  z139  z140  z141  z142  z143  z144  z145  z146  z147  z148  z149  z150 
 z151  z152  z153  z154  z155  z156  z157  z158  z159  z160  z161  z162  z163 
 z164  z165  z166  z167  z168  z169  z170  z171  z172  z173  z174  z175  z176 
 z177  z178  z179  z180  z181  z182  z183  z184  z185  z186  z187  z188  z189 
 z190  z191  z192  z193  z194  z195  z196  z197  z198  z199  z200  z201  z202 
 z203  z204  z205  z206  z207  z208  z209  z210  z211  z212  z213  z214  z215 
 z216  z217  z218  z219  z220  z221  z222  z223  z224  z225  z226  z227  z228 
 z229  z230  z231  z232  z233  z234  z235  z236  z237  z238  z239  z240  z241 
 z242  z243  z244  z245  z246  z247  z248  z249  z250  z251  z252  z253  z254 
 z255  z256  z257  z258  z259  z260  z261  z262  z263  z264  z265  z266  z267 
 z268  z269  z270  z271  z272  z273  z274  z275  z276  z277  z278  z279  z280 
 z281  z282  z283  z284  z285  z286  z287  z288  z289  z290  z291  z292  z293 
 z294  z295  z296  z297  z298  z299  z300  z301  z302  z303  z304  z305  z306 
 z307  z308  z309  z310  z311  z312  z313  z314  z315  z316  z317  z318  z319 
 z320  z321  z322  z323  z324  z325  z326  z327  z328  z329  z330  z331  z332 
 z333  z334  z335  z336  z337  z338  z339  z340  z341  z342  z343  z344  z345 
 z346  z347  z348  z349  z350  z351  z352  z353  z354  z355  z356  z357  z358 
 z359  z360  z361  z362  z363  z364  z365  z366  z367  z368  z369  z370  z371 
 z372  z373  z374  z375  z376  z377  z378  z379  z380  z381  z382  z383  z384 
 z385  z386  z387  z388  z389  z390  z391  z392  z393  z394  z395  z396  z397 
 z398  z399  z400  z401  z402  z403  z404  z405  z406  z407  z408  z409  z410 
 z411  z412  z413  z414  z415  z416  z417  z418  z419  z420  z421  z422  z423 
 z424  z425  z426  z427  z428  z429  z430  z431  z432  z433  z434  z435  z436 
 z437  z438  z439  z440  z441  z442  z443  z444  z445  z446  z447  z448  z449 
 z450  z451  z452  z453  z454  z455  z456  z457  z458  z459  z460  z461  z462 
 z463  z464  z465  z466  z467  z468  z469  z470  z471  z472  z473  z474  z475 
 z476  z477  z478  z479  z480  z481  z482  z483  z484  z485  z486  z487  z488 
 z489  z490  z491  z492  z493  z494  z495  z496  z497  z498  z499  z500  z501 
 z502  z503  z504  z505  z506  z507  z508  z509  z510  z511  z512  z513  z514 
 z515  z516  z517  z518  z519  z520  z521  z522  z523  z524  z525  z526  z527 
 z528  z529  z530  z531  z532  z533  z534  z535  z536  z537  z538  z539  z540 
 z541  z542  z543  z544  z545  z546  z547  z548  z549  z550  z551  z552  z553 
 z554  z555  z556  z557  z558  z559  z560  z561  z562  z563  z564  z565  z566 
 z567  z568  z569  z570  z571  z572  z573  z574  z575  z576  z577  z578  z579 
 z580  z581  z582  z583  z584  z585  z586  z587  z588  z589  z590  z591  z592 
 z593  z594  z595  z596  z597  z598  z599  z600  z601  z602  z603  z604  z605 
 z606  z607  z608  z609  z610  z611  z612  z613  z614  z615  z616  z617  z618 
 z619  z620  z621  z622  z623  z624  z19  z41  z80  z27  z25  z60  z95  z6 
 z81  z123  z106  z82  z85  z101  z44  z12  z53  z26  z24  z121  z51  z97  z7 
 z4  z33  z83  z55  z49  z74  z57  z11  z113  z0  z40  z122  z114  z38  z98 
 z77  z35  z48  z37  z59  z111  z103  z88  z119  z36  z78  z86  z10  z14  z2 
 z93  z99  z72  z91  z124  z45  z108  z94  z112  z116  z84  z69  z30  z104 
 z34  z39  z20  z100  z56  z120  z71  z18  z22  z109  z102  z64  z31  z68  z58 
 z43  z50  z28  z75  z9  z63  z54  z117  z21  z3  z52  z47  z16  z1  z23  z61 
 z110  z92  z76  z66  z115  z17  z13  z8  z67  z46  z118  z107  z96  z15  z79 
 z73  z89  z65  z105  z87  z5  z70  z90  z62  z42  z29  z32 
End
